c Random CNF formula
p cnf 10 20
4 9 -10 0
-5 2 -1 0
-10 9 -6 0
-1 -2 7 0
6 -1 4 0
-10 3 8 0
-8 2 6 0
-6 -5 -7 0
6 -9 1 0
-6 -10 4 0
1 6 -4 0
2 -8 7 0
-6 1 3 0
-6 -1 5 0
-4 -6 -8 0
-6 9 8 0
7 3 -9 0
1 -8 -6 0
2 -10 -5 0
8 -10 -9 0
